p tw 120 16801 2 
1 3 
1 4 
1 5 
1 6 
1 7 
1 8 
1 9 
1 10 
1 11 
1 12 
1 13 
1 14 
1 15 
1 16 
1 17 
1 18 
1 19 
1 20 
1 21 
1 22 
1 23 
1 24 
1 25 
1 26 
1 27 
1 28 
1 29 
2 3 
2 4 
2 5 
2 6 
2 7 
2 8 
2 9 
2 10 
2 11 
2 12 
2 13 
2 14 
2 15 
2 16 
2 30 
2 31 
2 32 
2 33 
2 34 
2 35 
2 36 
2 37 
2 38 
2 39 
2 40 
2 41 
2 42 
3 4 
3 5 
3 6 
3 7 
3 8 
3 9 
3 10 
3 11 
3 12 
3 13 
3 14 
3 15 
3 17 
3 30 
3 43 
3 44 
3 45 
3 46 
3 47 
3 48 
3 49 
3 50 
3 51 
3 52 
3 53 
3 54 
4 5 
4 6 
4 7 
4 8 
4 9 
4 10 
4 11 
4 12 
4 13 
4 14 
4 15 
4 18 
4 31 
4 43 
4 55 
4 56 
4 57 
4 58 
4 59 
4 60 
4 61 
4 62 
4 63 
4 64 
4 65 
5 6 
5 7 
5 8 
5 9 
5 10 
5 11 
5 12 
5 13 
5 14 
5 15 
5 19 
5 32 
5 44 
5 55 
5 66 
5 67 
5 68 
5 69 
5 70 
5 71 
5 72 
5 73 
5 74 
5 75 
6 7 
6 8 
6 9 
6 10 
6 11 
6 12 
6 13 
6 14 
6 15 
6 20 
6 33 
6 45 
6 56 
6 66 
6 76 
6 77 
6 78 
6 79 
6 80 
6 81 
6 82 
6 83 
6 84 
7 8 
7 9 
7 10 
7 11 
7 12 
7 13 
7 14 
7 15 
7 21 
7 34 
7 46 
7 57 
7 67 
7 76 
7 85 
7 86 
7 87 
7 88 
7 89 
7 90 
7 91 
7 92 
8 9 
8 10 
8 11 
8 12 
8 13 
8 14 
8 15 
8 22 
8 35 
8 47 
8 58 
8 68 
8 77 
8 85 
8 93 
8 94 
8 95 
8 96 
8 97 
8 98 
8 99 
9 10 
9 11 
9 12 
9 13 
9 14 
9 15 
9 23 
9 36 
9 48 
9 59 
9 69 
9 78 
9 86 
9 93 
9 100 
9 101 
9 102 
9 103 
9 104 
9 105 
10 11 
10 12 
10 13 
10 14 
10 15 
10 24 
10 37 
10 49 
10 60 
10 70 
10 79 
10 87 
10 94 
10 100 
10 106 
10 107 
10 108 
10 109 
10 110 
11 12 
11 13 
11 14 
11 15 
11 25 
11 38 
11 50 
11 61 
11 71 
11 80 
11 88 
11 95 
11 101 
11 106 
11 111 
11 112 
11 113 
11 114 
12 13 
12 14 
12 15 
12 26 
12 39 
12 51 
12 62 
12 72 
12 81 
12 89 
12 96 
12 102 
12 107 
12 111 
12 115 
12 116 
12 117 
13 14 
13 15 
13 27 
13 40 
13 52 
13 63 
13 73 
13 82 
13 90 
13 97 
13 103 
13 108 
13 112 
13 115 
13 118 
13 119 
14 15 
14 28 
14 41 
14 53 
14 64 
14 74 
14 83 
14 91 
14 98 
14 104 
14 109 
14 113 
14 116 
14 118 
14 120 
15 29 
15 42 
15 54 
15 65 
15 75 
15 84 
15 92 
15 99 
15 105 
15 110 
15 114 
15 117 
15 119 
15 120 
16 17 
16 18 
16 19 
16 20 
16 21 
16 22 
16 23 
16 24 
16 25 
16 26 
16 27 
16 28 
16 29 
16 30 
16 31 
16 32 
16 33 
16 34 
16 35 
16 36 
16 37 
16 38 
16 39 
16 40 
16 41 
16 42 
17 18 
17 19 
17 20 
17 21 
17 22 
17 23 
17 24 
17 25 
17 26 
17 27 
17 28 
17 29 
17 30 
17 43 
17 44 
17 45 
17 46 
17 47 
17 48 
17 49 
17 50 
17 51 
17 52 
17 53 
17 54 
18 19 
18 20 
18 21 
18 22 
18 23 
18 24 
18 25 
18 26 
18 27 
18 28 
18 29 
18 31 
18 43 
18 55 
18 56 
18 57 
18 58 
18 59 
18 60 
18 61 
18 62 
18 63 
18 64 
18 65 
19 20 
19 21 
19 22 
19 23 
19 24 
19 25 
19 26 
19 27 
19 28 
19 29 
19 32 
19 44 
19 55 
19 66 
19 67 
19 68 
19 69 
19 70 
19 71 
19 72 
19 73 
19 74 
19 75 
20 21 
20 22 
20 23 
20 24 
20 25 
20 26 
20 27 
20 28 
20 29 
20 33 
20 45 
20 56 
20 66 
20 76 
20 77 
20 78 
20 79 
20 80 
20 81 
20 82 
20 83 
20 84 
21 22 
21 23 
21 24 
21 25 
21 26 
21 27 
21 28 
21 29 
21 34 
21 46 
21 57 
21 67 
21 76 
21 85 
21 86 
21 87 
21 88 
21 89 
21 90 
21 91 
21 92 
22 23 
22 24 
22 25 
22 26 
22 27 
22 28 
22 29 
22 35 
22 47 
22 58 
22 68 
22 77 
22 85 
22 93 
22 94 
22 95 
22 96 
22 97 
22 98 
22 99 
23 24 
23 25 
23 26 
23 27 
23 28 
23 29 
23 36 
23 48 
23 59 
23 69 
23 78 
23 86 
23 93 
23 100 
23 101 
23 102 
23 103 
23 104 
23 105 
24 25 
24 26 
24 27 
24 28 
24 29 
24 37 
24 49 
24 60 
24 70 
24 79 
24 87 
24 94 
24 100 
24 106 
24 107 
24 108 
24 109 
24 110 
25 26 
25 27 
25 28 
25 29 
25 38 
25 50 
25 61 
25 71 
25 80 
25 88 
25 95 
25 101 
25 106 
25 111 
25 112 
25 113 
25 114 
26 27 
26 28 
26 29 
26 39 
26 51 
26 62 
26 72 
26 81 
26 89 
26 96 
26 102 
26 107 
26 111 
26 115 
26 116 
26 117 
27 28 
27 29 
27 40 
27 52 
27 63 
27 73 
27 82 
27 90 
27 97 
27 103 
27 108 
27 112 
27 115 
27 118 
27 119 
28 29 
28 41 
28 53 
28 64 
28 74 
28 83 
28 91 
28 98 
28 104 
28 109 
28 113 
28 116 
28 118 
28 120 
29 42 
29 54 
29 65 
29 75 
29 84 
29 92 
29 99 
29 105 
29 110 
29 114 
29 117 
29 119 
29 120 
30 31 
30 32 
30 33 
30 34 
30 35 
30 36 
30 37 
30 38 
30 39 
30 40 
30 41 
30 42 
30 43 
30 44 
30 45 
30 46 
30 47 
30 48 
30 49 
30 50 
30 51 
30 52 
30 53 
30 54 
31 32 
31 33 
31 34 
31 35 
31 36 
31 37 
31 38 
31 39 
31 40 
31 41 
31 42 
31 43 
31 55 
31 56 
31 57 
31 58 
31 59 
31 60 
31 61 
31 62 
31 63 
31 64 
31 65 
32 33 
32 34 
32 35 
32 36 
32 37 
32 38 
32 39 
32 40 
32 41 
32 42 
32 44 
32 55 
32 66 
32 67 
32 68 
32 69 
32 70 
32 71 
32 72 
32 73 
32 74 
32 75 
33 34 
33 35 
33 36 
33 37 
33 38 
33 39 
33 40 
33 41 
33 42 
33 45 
33 56 
33 66 
33 76 
33 77 
33 78 
33 79 
33 80 
33 81 
33 82 
33 83 
33 84 
34 35 
34 36 
34 37 
34 38 
34 39 
34 40 
34 41 
34 42 
34 46 
34 57 
34 67 
34 76 
34 85 
34 86 
34 87 
34 88 
34 89 
34 90 
34 91 
34 92 
35 36 
35 37 
35 38 
35 39 
35 40 
35 41 
35 42 
35 47 
35 58 
35 68 
35 77 
35 85 
35 93 
35 94 
35 95 
35 96 
35 97 
35 98 
35 99 
36 37 
36 38 
36 39 
36 40 
36 41 
36 42 
36 48 
36 59 
36 69 
36 78 
36 86 
36 93 
36 100 
36 101 
36 102 
36 103 
36 104 
36 105 
37 38 
37 39 
37 40 
37 41 
37 42 
37 49 
37 60 
37 70 
37 79 
37 87 
37 94 
37 100 
37 106 
37 107 
37 108 
37 109 
37 110 
38 39 
38 40 
38 41 
38 42 
38 50 
38 61 
38 71 
38 80 
38 88 
38 95 
38 101 
38 106 
38 111 
38 112 
38 113 
38 114 
39 40 
39 41 
39 42 
39 51 
39 62 
39 72 
39 81 
39 89 
39 96 
39 102 
39 107 
39 111 
39 115 
39 116 
39 117 
40 41 
40 42 
40 52 
40 63 
40 73 
40 82 
40 90 
40 97 
40 103 
40 108 
40 112 
40 115 
40 118 
40 119 
41 42 
41 53 
41 64 
41 74 
41 83 
41 91 
41 98 
41 104 
41 109 
41 113 
41 116 
41 118 
41 120 
42 54 
42 65 
42 75 
42 84 
42 92 
42 99 
42 105 
42 110 
42 114 
42 117 
42 119 
42 120 
43 44 
43 45 
43 46 
43 47 
43 48 
43 49 
43 50 
43 51 
43 52 
43 53 
43 54 
43 55 
43 56 
43 57 
43 58 
43 59 
43 60 
43 61 
43 62 
43 63 
43 64 
43 65 
44 45 
44 46 
44 47 
44 48 
44 49 
44 50 
44 51 
44 52 
44 53 
44 54 
44 55 
44 66 
44 67 
44 68 
44 69 
44 70 
44 71 
44 72 
44 73 
44 74 
44 75 
45 46 
45 47 
45 48 
45 49 
45 50 
45 51 
45 52 
45 53 
45 54 
45 56 
45 66 
45 76 
45 77 
45 78 
45 79 
45 80 
45 81 
45 82 
45 83 
45 84 
46 47 
46 48 
46 49 
46 50 
46 51 
46 52 
46 53 
46 54 
46 57 
46 67 
46 76 
46 85 
46 86 
46 87 
46 88 
46 89 
46 90 
46 91 
46 92 
47 48 
47 49 
47 50 
47 51 
47 52 
47 53 
47 54 
47 58 
47 68 
47 77 
47 85 
47 93 
47 94 
47 95 
47 96 
47 97 
47 98 
47 99 
48 49 
48 50 
48 51 
48 52 
48 53 
48 54 
48 59 
48 69 
48 78 
48 86 
48 93 
48 100 
48 101 
48 102 
48 103 
48 104 
48 105 
49 50 
49 51 
49 52 
49 53 
49 54 
49 60 
49 70 
49 79 
49 87 
49 94 
49 100 
49 106 
49 107 
49 108 
49 109 
49 110 
50 51 
50 52 
50 53 
50 54 
50 61 
50 71 
50 80 
50 88 
50 95 
50 101 
50 106 
50 111 
50 112 
50 113 
50 114 
51 52 
51 53 
51 54 
51 62 
51 72 
51 81 
51 89 
51 96 
51 102 
51 107 
51 111 
51 115 
51 116 
51 117 
52 53 
52 54 
52 63 
52 73 
52 82 
52 90 
52 97 
52 103 
52 108 
52 112 
52 115 
52 118 
52 119 
53 54 
53 64 
53 74 
53 83 
53 91 
53 98 
53 104 
53 109 
53 113 
53 116 
53 118 
53 120 
54 65 
54 75 
54 84 
54 92 
54 99 
54 105 
54 110 
54 114 
54 117 
54 119 
54 120 
55 56 
55 57 
55 58 
55 59 
55 60 
55 61 
55 62 
55 63 
55 64 
55 65 
55 66 
55 67 
55 68 
55 69 
55 70 
55 71 
55 72 
55 73 
55 74 
55 75 
56 57 
56 58 
56 59 
56 60 
56 61 
56 62 
56 63 
56 64 
56 65 
56 66 
56 76 
56 77 
56 78 
56 79 
56 80 
56 81 
56 82 
56 83 
56 84 
57 58 
57 59 
57 60 
57 61 
57 62 
57 63 
57 64 
57 65 
57 67 
57 76 
57 85 
57 86 
57 87 
57 88 
57 89 
57 90 
57 91 
57 92 
58 59 
58 60 
58 61 
58 62 
58 63 
58 64 
58 65 
58 68 
58 77 
58 85 
58 93 
58 94 
58 95 
58 96 
58 97 
58 98 
58 99 
59 60 
59 61 
59 62 
59 63 
59 64 
59 65 
59 69 
59 78 
59 86 
59 93 
59 100 
59 101 
59 102 
59 103 
59 104 
59 105 
60 61 
60 62 
60 63 
60 64 
60 65 
60 70 
60 79 
60 87 
60 94 
60 100 
60 106 
60 107 
60 108 
60 109 
60 110 
61 62 
61 63 
61 64 
61 65 
61 71 
61 80 
61 88 
61 95 
61 101 
61 106 
61 111 
61 112 
61 113 
61 114 
62 63 
62 64 
62 65 
62 72 
62 81 
62 89 
62 96 
62 102 
62 107 
62 111 
62 115 
62 116 
62 117 
63 64 
63 65 
63 73 
63 82 
63 90 
63 97 
63 103 
63 108 
63 112 
63 115 
63 118 
63 119 
64 65 
64 74 
64 83 
64 91 
64 98 
64 104 
64 109 
64 113 
64 116 
64 118 
64 120 
65 75 
65 84 
65 92 
65 99 
65 105 
65 110 
65 114 
65 117 
65 119 
65 120 
66 67 
66 68 
66 69 
66 70 
66 71 
66 72 
66 73 
66 74 
66 75 
66 76 
66 77 
66 78 
66 79 
66 80 
66 81 
66 82 
66 83 
66 84 
67 68 
67 69 
67 70 
67 71 
67 72 
67 73 
67 74 
67 75 
67 76 
67 85 
67 86 
67 87 
67 88 
67 89 
67 90 
67 91 
67 92 
68 69 
68 70 
68 71 
68 72 
68 73 
68 74 
68 75 
68 77 
68 85 
68 93 
68 94 
68 95 
68 96 
68 97 
68 98 
68 99 
69 70 
69 71 
69 72 
69 73 
69 74 
69 75 
69 78 
69 86 
69 93 
69 100 
69 101 
69 102 
69 103 
69 104 
69 105 
70 71 
70 72 
70 73 
70 74 
70 75 
70 79 
70 87 
70 94 
70 100 
70 106 
70 107 
70 108 
70 109 
70 110 
71 72 
71 73 
71 74 
71 75 
71 80 
71 88 
71 95 
71 101 
71 106 
71 111 
71 112 
71 113 
71 114 
72 73 
72 74 
72 75 
72 81 
72 89 
72 96 
72 102 
72 107 
72 111 
72 115 
72 116 
72 117 
73 74 
73 75 
73 82 
73 90 
73 97 
73 103 
73 108 
73 112 
73 115 
73 118 
73 119 
74 75 
74 83 
74 91 
74 98 
74 104 
74 109 
74 113 
74 116 
74 118 
74 120 
75 84 
75 92 
75 99 
75 105 
75 110 
75 114 
75 117 
75 119 
75 120 
76 77 
76 78 
76 79 
76 80 
76 81 
76 82 
76 83 
76 84 
76 85 
76 86 
76 87 
76 88 
76 89 
76 90 
76 91 
76 92 
77 78 
77 79 
77 80 
77 81 
77 82 
77 83 
77 84 
77 85 
77 93 
77 94 
77 95 
77 96 
77 97 
77 98 
77 99 
78 79 
78 80 
78 81 
78 82 
78 83 
78 84 
78 86 
78 93 
78 100 
78 101 
78 102 
78 103 
78 104 
78 105 
79 80 
79 81 
79 82 
79 83 
79 84 
79 87 
79 94 
79 100 
79 106 
79 107 
79 108 
79 109 
79 110 
80 81 
80 82 
80 83 
80 84 
80 88 
80 95 
80 101 
80 106 
80 111 
80 112 
80 113 
80 114 
81 82 
81 83 
81 84 
81 89 
81 96 
81 102 
81 107 
81 111 
81 115 
81 116 
81 117 
82 83 
82 84 
82 90 
82 97 
82 103 
82 108 
82 112 
82 115 
82 118 
82 119 
83 84 
83 91 
83 98 
83 104 
83 109 
83 113 
83 116 
83 118 
83 120 
84 92 
84 99 
84 105 
84 110 
84 114 
84 117 
84 119 
84 120 
85 86 
85 87 
85 88 
85 89 
85 90 
85 91 
85 92 
85 93 
85 94 
85 95 
85 96 
85 97 
85 98 
85 99 
86 87 
86 88 
86 89 
86 90 
86 91 
86 92 
86 93 
86 100 
86 101 
86 102 
86 103 
86 104 
86 105 
87 88 
87 89 
87 90 
87 91 
87 92 
87 94 
87 100 
87 106 
87 107 
87 108 
87 109 
87 110 
88 89 
88 90 
88 91 
88 92 
88 95 
88 101 
88 106 
88 111 
88 112 
88 113 
88 114 
89 90 
89 91 
89 92 
89 96 
89 102 
89 107 
89 111 
89 115 
89 116 
89 117 
90 91 
90 92 
90 97 
90 103 
90 108 
90 112 
90 115 
90 118 
90 119 
91 92 
91 98 
91 104 
91 109 
91 113 
91 116 
91 118 
91 120 
92 99 
92 105 
92 110 
92 114 
92 117 
92 119 
92 120 
93 94 
93 95 
93 96 
93 97 
93 98 
93 99 
93 100 
93 101 
93 102 
93 103 
93 104 
93 105 
94 95 
94 96 
94 97 
94 98 
94 99 
94 100 
94 106 
94 107 
94 108 
94 109 
94 110 
95 96 
95 97 
95 98 
95 99 
95 101 
95 106 
95 111 
95 112 
95 113 
95 114 
96 97 
96 98 
96 99 
96 102 
96 107 
96 111 
96 115 
96 116 
96 117 
97 98 
97 99 
97 103 
97 108 
97 112 
97 115 
97 118 
97 119 
98 99 
98 104 
98 109 
98 113 
98 116 
98 118 
98 120 
99 105 
99 110 
99 114 
99 117 
99 119 
99 120 
100 101 
100 102 
100 103 
100 104 
100 105 
100 106 
100 107 
100 108 
100 109 
100 110 
101 102 
101 103 
101 104 
101 105 
101 106 
101 111 
101 112 
101 113 
101 114 
102 103 
102 104 
102 105 
102 107 
102 111 
102 115 
102 116 
102 117 
103 104 
103 105 
103 108 
103 112 
103 115 
103 118 
103 119 
104 105 
104 109 
104 113 
104 116 
104 118 
104 120 
105 110 
105 114 
105 117 
105 119 
105 120 
106 107 
106 108 
106 109 
106 110 
106 111 
106 112 
106 113 
106 114 
107 108 
107 109 
107 110 
107 111 
107 115 
107 116 
107 117 
108 109 
108 110 
108 112 
108 115 
108 118 
108 119 
109 110 
109 113 
109 116 
109 118 
109 120 
110 114 
110 117 
110 119 
110 120 
111 112 
111 113 
111 114 
111 115 
111 116 
111 117 
112 113 
112 114 
112 115 
112 118 
112 119 
113 114 
113 116 
113 118 
113 120 
114 117 
114 119 
114 120 
115 116 
115 117 
115 118 
115 119 
116 117 
116 118 
116 120 
117 119 
117 120 
118 119 
118 120 
119 120 
